solution/p_4_5.txt_600.row.sol
<?xml version = "1.0" encoding="UTF-8" standalone="yes"?>
<CPLEXSolution version="1.2">
 <header
   problemName="ilog.cplex"
   solutionName="incumbent"
   solutionIndex="-1"
   objectiveValue="220"
   solutionTypeValue="3"
   solutionTypeString="primal"
   solutionStatusValue="101"
   solutionStatusString="integer optimal solution"
   solutionMethodString="mip"
   primalFeasible="1"
   dualFeasible="1"
   MIPNodes="0"
   MIPIterations="4"
   writeLevel="1"/>
 <quality
   epInt="1.0000000000000001e-05"
   epRHS="9.9999999999999995e-07"
   maxIntInfeas="0"
   maxPrimalInfeas="0"
   maxX="1"
   maxSlack="7"/>
 <linearConstraints>
  <constraint index="0" slack="1"/>
  <constraint index="1" slack="7"/>
  <constraint index="2" slack="3"/>
  <constraint index="3" slack="0"/>
  <constraint index="4" slack="0"/>
  <constraint index="5" slack="0"/>
  <constraint index="6" slack="0"/>
  <constraint index="7" slack="0"/>
  <constraint index="8" slack="0"/>
  <constraint index="9" slack="0"/>
  <constraint index="10" slack="0"/>
  <constraint index="11" slack="0"/>
  <constraint index="12" slack="0"/>
  <constraint index="13" slack="0"/>
  <constraint index="14" slack="0"/>
  <constraint index="15" slack="1"/>
  <constraint index="16" slack="0"/>
  <constraint index="17" slack="0"/>
  <constraint index="18" slack="0"/>
  <constraint index="19" slack="0"/>
  <constraint index="20" slack="0"/>
  <constraint index="21" slack="0"/>
  <constraint index="22" slack="0"/>
  <constraint index="23" slack="0"/>
 </linearConstraints>
 <variables>
  <variable name="x_ijk_0_0_0" index="0" value="0"/>
  <variable name="x_ijk_0_1_0" index="1" value="0"/>
  <variable name="x_ijk_0_2_0" index="2" value="1"/>
  <variable name="x_ijk_1_0_0" index="3" value="1"/>
  <variable name="x_ijk_1_1_0" index="4" value="0"/>
  <variable name="x_ijk_1_2_0" index="5" value="0"/>
  <variable name="x_ijk_1_3_0" index="6" value="0"/>
  <variable name="x_ijk_1_4_0" index="7" value="0"/>
  <variable name="x_ijk_2_0_0" index="8" value="1"/>
  <variable name="x_ijk_2_1_0" index="9" value="0"/>
  <variable name="x_ijk_3_0_0" index="10" value="0"/>
  <variable name="x_ijk_3_1_0" index="11" value="0"/>
  <variable name="x_ijk_3_2_0" index="12" value="1"/>
  <variable name="x_ijk_4_0_0" index="13" value="0"/>
  <variable name="x_ijk_4_1_0" index="14" value="1"/>
  <variable name="x_ijk_0_0_1" index="15" value="0"/>
  <variable name="x_ijk_0_1_1" index="16" value="1"/>
  <variable name="x_ijk_0_2_1" index="17" value="0"/>
  <variable name="x_ijk_1_0_1" index="18" value="0"/>
  <variable name="x_ijk_1_1_1" index="19" value="0"/>
  <variable name="x_ijk_1_2_1" index="20" value="0"/>
  <variable name="x_ijk_1_3_1" index="21" value="1"/>
  <variable name="x_ijk_1_4_1" index="22" value="0"/>
  <variable name="x_ijk_2_0_1" index="23" value="1"/>
  <variable name="x_ijk_2_1_1" index="24" value="0"/>
  <variable name="x_ijk_3_0_1" index="25" value="0"/>
  <variable name="x_ijk_3_1_1" index="26" value="1"/>
  <variable name="x_ijk_3_2_1" index="27" value="0"/>
  <variable name="x_ijk_4_0_1" index="28" value="0"/>
  <variable name="x_ijk_4_1_1" index="29" value="1"/>
  <variable name="x_ijk_0_0_2" index="30" value="0"/>
  <variable name="x_ijk_0_1_2" index="31" value="1"/>
  <variable name="x_ijk_0_2_2" index="32" value="0"/>
  <variable name="x_ijk_1_0_2" index="33" value="1"/>
  <variable name="x_ijk_1_1_2" index="34" value="0"/>
  <variable name="x_ijk_1_2_2" index="35" value="0"/>
  <variable name="x_ijk_1_3_2" index="36" value="0"/>
  <variable name="x_ijk_1_4_2" index="37" value="0"/>
  <variable name="x_ijk_2_0_2" index="38" value="0"/>
  <variable name="x_ijk_2_1_2" index="39" value="1"/>
  <variable name="x_ijk_3_0_2" index="40" value="0"/>
  <variable name="x_ijk_3_1_2" index="41" value="0"/>
  <variable name="x_ijk_3_2_2" index="42" value="1"/>
  <variable name="x_ijk_4_0_2" index="43" value="0"/>
  <variable name="x_ijk_4_1_2" index="44" value="1"/>
  <variable name="x_ijk_0_0_3" index="45" value="0"/>
  <variable name="x_ijk_0_1_3" index="46" value="1"/>
  <variable name="x_ijk_0_2_3" index="47" value="0"/>
  <variable name="x_ijk_1_0_3" index="48" value="0"/>
  <variable name="x_ijk_1_1_3" index="49" value="0"/>
  <variable name="x_ijk_1_2_3" index="50" value="0"/>
  <variable name="x_ijk_1_3_3" index="51" value="1"/>
  <variable name="x_ijk_1_4_3" index="52" value="0"/>
  <variable name="x_ijk_2_0_3" index="53" value="0"/>
  <variable name="x_ijk_2_1_3" index="54" value="0"/>
  <variable name="x_ijk_3_0_3" index="55" value="0"/>
  <variable name="x_ijk_3_1_3" index="56" value="0"/>
  <variable name="x_ijk_3_2_3" index="57" value="1"/>
  <variable name="x_ijk_4_0_3" index="58" value="1"/>
  <variable name="x_ijk_4_1_3" index="59" value="0"/>
 </variables>
</CPLEXSolution>
