solution/p_4_5.txt_600.row.log
CPXPARAM_TimeLimit                               600
CPXPARAM_WorkMem                                 4096
CPXPARAM_Threads                                 1
Found incumbent of value 0,000000 after 0,00 sec. (0,00 ticks)
Tried aggregator 1 time.
MIP Presolve eliminated 8 rows and 25 columns.
Reduced MIP has 16 rows, 35 columns, and 62 nonzeros.
Reduced MIP has 35 binaries, 0 generals, 0 SOSs, and 0 indicators.
Presolve time = 0,00 sec. (0,10 ticks)
Probing time = 0,00 sec. (0,01 ticks)
Tried aggregator 1 time.
MIP Presolve eliminated 11 rows and 24 columns.
Reduced MIP has 5 rows, 11 columns, and 21 nonzeros.
Reduced MIP has 11 binaries, 0 generals, 0 SOSs, and 0 indicators.
Presolve time = 0,00 sec. (0,02 ticks)
Probing time = 0,00 sec. (0,00 ticks)
Tried aggregator 1 time.
Reduced MIP has 5 rows, 11 columns, and 21 nonzeros.
Reduced MIP has 11 binaries, 0 generals, 0 SOSs, and 0 indicators.
Presolve time = 0,00 sec. (0,02 ticks)
Probing time = 0,00 sec. (0,00 ticks)
Clique table members: 4.
MIP emphasis: balance optimality and feasibility.
MIP search method: dynamic search.
Parallel mode: none, using 1 thread.
Root relaxation solution time = 0,00 sec. (0,01 ticks)

        Nodes                                         Cuts/
   Node  Left     Objective  IInf  Best Integer    Best Bound    ItCnt     Gap

*     0+    0                          166,0000      268,0000            61,45%
      0     0      220,2353     2      166,0000      220,2353        4   32,67%
*     0+    0                          220,0000      220,2353             0,11%
      0     0        cutoff            220,0000      220,2353        4    0,11%
Elapsed time = 0,01 sec. (3,16 ticks, tree = 0,01 MB, solutions = 3)

Root node processing (before b&c):
  Real time             =    0,01 sec. (3,17 ticks)
Sequential b&c:
  Real time             =    0,00 sec. (0,00 ticks)
                          ------------
Total (root+branch&cut) =    0,01 sec. (3,17 ticks)
